c WARNING: for repeatability, setting FPU to use double precision
d VARIABLES            135320       
d CONSTRAINTS          492884       
c ============================[ Problem Statistics ]=============================
c |                                                                             |
c |  Number of variables:        135320                                         |
c |  Number of clauses:          492884                                         |
c |  Parse time:                   0.09 s                                       |
c |                                                                             |
c ============================[ Search Statistics ]==============================
c | Conflicts |          ORIGINAL         |          LEARNT          | Progress |
c |           |    Vars  Clauses Literals |    Limit  Clauses Lit/Cl |          |
c ===============================================================================
c |       100 |  107550   421846  1058435 |   154676       99      9 | 20.522 % |
c |       250 |  107550   421846  1058435 |   170144      249     16 | 20.522 % |
c |       475 |  107550   421846  1058435 |   187159      474     73 | 20.522 % |
c |       812 |  107550   421840  1058420 |   205874      811     67 | 20.522 % |
c |      1318 |  107550   421840  1058420 |   226462     1317     51 | 20.522 % |
c |      2077 |  107550   421840  1058420 |   249108     2076     69 | 20.522 % |
c |      3216 |  107549   421836  1058410 |   274019     3214     66 | 20.522 % |
c |      4924 |  107548   421832  1058400 |   301421     4921     57 | 20.523 % |
c |      7486 |  107548   421832  1058400 |   331563     7483     71 | 20.523 % |
c |     11330 |  107548   421832  1058400 |   364719    11327     79 | 20.523 % |
c |     17096 |  107548   421832  1058400 |   401191    17093    109 | 20.523 % |
c |     25745 |  107548   421832  1058400 |   441311    25742    106 | 20.523 % |
c |     38719 |  107548   421832  1058400 |   485442    38716    107 | 20.523 % |
c |     58180 |  107548   421832  1058400 |   533986    58177    147 | 20.523 % |
c |     87372 |  107548   421832  1058400 |   587385    87369    163 | 20.523 % |
c |    131161 |  107548   421832  1058400 |   646123   131158    195 | 20.523 % |
c |    196845 |  107548   421832  1058400 |   710736   196842    207 | 20.523 % |
c |    295371 |  107548   421832  1058400 |   781809   295368    236 | 20.523 % |
c |    443160 |  107548   421832  1058400 |   859990   443157    243 | 20.523 % |
c |    664843 |  107548   421832  1058400 |   945989   664840    242 | 20.523 % |
c |    997368 |  107548   421832  1058400 |  1040588    46966    144 | 20.523 % |
c |   1496156 |  107548   421832  1058400 |  1144647   545754    325 | 20.523 % |
c ===============================================================================
c restarts              : 4091
c conflicts             : 2065503        (1153 /sec)
c decisions             : 6622261        (0.00 % random) (3698 /sec)
c propagations          : 4632457012     (2586953 /sec)
c conflict literals     : 563363305      (35.48 % deleted)
d RESTARTS             4091
d FAILURES             2065503      
d NODES                6622261      
d BACKTRACKS           6622261      
d PROPAGATIONS         4632457012   
d NOGOODSIZE           272.75 
d MEMORY               1599.00 
d TIME                 1790.7 

s UNKNOWN
